Maximize
  56 x_blueberries + 75 x_raspberries.
Subject To
  c1: x_blueberries + x_raspberries. <= 300
  c2: 22 x_blueberries + 25 x_raspberries. <= 10000
  c3: 6 x_blueberries + 3 x_raspberries. <= 575
End